s td 80 9 88
b 1 1 2 12
b 2 10 11 22
b 3 67 78 79
b 4 77 87 88
b 5 2 3 12 13
b 6 9 10 21 22
b 7 3 4 15 27 39 51 61 73 85
b 8 4 15 27 39 51 61 63 73 85
b 9 4 5 15 27 39 51 63 73 85
b 10 5 15 17 27 39 51 63 73 85
b 11 5 17 27 29 39 51 63 73 85
b 12 5 17 29 39 41 51 63 73 85
b 13 5 17 29 41 51 53 63 73 85
b 14 5 17 29 41 53 63 73 75 85
b 15 5 17 29 41 53 63 65 75 85
b 16 5 17 29 41 53 55 65 75 85
b 17 5 17 29 41 43 53 55 65
b 18 5 17 29 31 41 43 53 55
b 19 5 17 19 29 31 41 43 55
b 20 5 8 17 19 29 31 43 55
b 21 5 8 17 18 19 29
b 22 5 6 8 17 18
b 23 6 7 8 18
b 24 8 19 31 33 43 55
b 25 8 19 21 31 33 43
b 26 8 19 20 21 31 33
b 27 8 9 20 21 33
b 28 9 21 22 33
b 29 21 31 32 33 43
b 30 33 43 44 55
b 31 19 29 30 31 41
b 32 31 41 42 43 53
b 33 43 53 54 55 65
b 34 55 65 75 85 87
b 35 55 65 75 76 87
b 36 55 65 66 76 87
b 37 75 85 86 87
b 38 53 63 64 65 75
b 39 63 73 74 75 85
b 40 41 51 52 53 63
b 41 29 39 40 41 51
b 42 17 27 28 29 39
b 43 5 15 16 17 27
b 44 51 61 62 63 73
b 45 3 15 27 39 49 51 61 73 85
b 46 3 15 27 39 49 61 73 83 85
b 47 3 15 27 39 49 61 71 73 83
b 48 3 15 27 39 49 59 61 71 83
b 49 3 15 27 37 39 49 59 71 83
b 50 3 15 27 37 47 49 59 71 83
b 51 3 15 25 27 37 47 59 71 83
b 52 3 15 25 35 37 47 59 71 83
b 53 3 15 25 34 35 47 59 71 83
b 54 3 13 15 25 34 35
b 55 3 13 24 25 34 35
b 56 3 13 23 24 34
b 57 3 12 13 23
b 58 3 13 14 15 25
b 59 34 35 47 59 71 81 83
b 60 34 35 47 59 69 71 81
b 61 34 35 47 58 59 69 81
b 62 34 35 46 47 58 69 81
b 63 34 46 56 58 69 81
b 64 34 45 46 56
b 65 46 56 57 58 69 81
b 66 56 57 69 79 81
b 67 56 57 68 69 79
b 68 69 79 80 81
b 69 59 69 70 71 81
b 70 71 81 82 83
b 71 25 35 36 37 47
b 72 15 25 26 27 37
b 73 37 47 48 49 59
b 74 27 37 38 39 49
b 75 49 59 60 61 71
b 76 61 71 72 73 83
b 77 73 83 84 85
b 78 39 49 50 51 61
b 79 56 67 68 79
b 80 66 76 77 87
1 5
2 6
3 79
4 80
5 57
6 28
7 8
7 45
8 9
8 44
9 10
10 11
10 43
11 12
11 42
12 13
12 41
13 14
13 40
14 15
14 39
15 16
15 38
16 17
16 34
17 18
17 33
18 19
18 32
19 20
19 31
20 21
20 24
21 22
22 23
24 25
24 30
25 26
25 29
26 27
27 28
34 35
34 37
35 36
36 80
45 46
45 78
46 47
46 77
47 48
47 76
48 49
48 75
49 50
49 74
50 51
50 73
51 52
51 72
52 53
52 71
53 54
53 59
54 55
54 58
55 56
56 57
59 60
59 70
60 61
60 69
61 62
62 63
63 64
63 65
65 66
66 67
66 68
67 79
